examples/doc/pyomobook/command-ch/concrete1-ref.nl
g3 1 1 0	# problem unknown
 2 2 1 0 0 	# vars, constraints, objectives, ranges, eqns
 0 0 0 0 0 0	# nonlinear constrs, objs; ccons: lin, nonlin, nd, nzlb
 0 0	# network constraints: nonlinear, linear
 0 0 0 	# nonlinear vars in constraints, objectives, both
 0 0 0 1	# linear network variables; functions; arith, flags
 0 2 0 0 0 	# discrete variables: binary, integer, nonlinear (b,c,o)
 4 2 	# nonzeros in Jacobian, obj. gradient
 0 0	# max name lengths: constraints, variables
 0 0 0 0 0	# common exprs: b,c,o,c1,o1
C0
n0
C1
n0
O0 0
n0
x0
r
2 1.0
2 2.0
b
2 0
2 0
k1
2
J0 2
0 3
1 4
J1 2
0 2
1 5
G0 2
0 1
1 2
